SECTION Graph
Nodes 361
Edges 724
E 1 313 7
E 1 318 1
E 1 320 2
E 2 3 14
E 2 319 1
E 2 322 2
E 3 4 1
E 3 326 1
E 3 328 2
E 4 327 1
E 4 329 2
E 5 6 2
E 5 154 11
E 6 125 41
E 6 153 7
E 6 157 11
E 7 8 1
E 7 276 22
E 7 295 7
E 7 304 1
E 8 9 14
E 8 278 22
E 8 306 1
E 9 10 1
E 9 296 22
E 9 314 1
E 10 298 22
E 10 316 1
E 11 12 1
E 11 262 7
E 11 276 1
E 12 13 14
E 12 278 1
E 13 14 1
E 13 296 1
E 14 298 1
E 15 16 1
E 15 34 7
E 15 310 11
E 16 17 14
E 16 311 11
E 17 18 1
E 17 321 11
E 18 323 11
E 19 20 1
E 19 23 21
E 19 38 7
E 19 302 1
E 20 21 14
E 20 24 21
E 20 303 1
E 21 22 1
E 21 25 21
E 21 312 1
E 22 26 21
E 22 313 1
E 22 318 7
E 23 24 1
E 23 264 7
E 23 272 1
E 24 25 14
E 24 275 1
E 25 26 1
E 25 292 1
E 26 295 1
E 26 304 7
E 27 28 1
E 27 232 7
E 27 243 1
E 27 269 21
E 28 29 14
E 28 246 1
E 28 273 21
E 29 30 1
E 29 259 1
E 29 289 21
E 30 262 1
E 30 276 7
E 30 293 21
E 31 32 1
E 31 285 11
E 31 290 7
E 32 33 14
E 32 287 11
E 33 34 1
E 33 307 11
E 34 309 11
E 35 36 1
E 35 244 21
E 35 257 7
E 35 271 1
E 36 37 14
E 36 248 21
E 36 274 1
E 37 38 1
E 37 260 21
E 37 291 1
E 38 264 21
E 38 294 1
E 39 40 1
E 39 212 21
E 39 228 7
E 39 242 1
E 40 41 14
E 40 214 21
E 40 245 1
E 41 42 1
E 41 230 21
E 41 258 1
E 42 232 21
E 42 261 1
E 42 269 7
E 43 44 1
E 43 212 2
E 44 45 14
E 44 214 2
E 45 46 1
E 45 230 2
E 46 232 2
E 46 243 8
E 47 48 1
E 47 268 4
E 48 49 14
E 48 270 4
E 49 50 1
E 49 288 4
E 50 290 4
E 51 52 1
E 51 235 7
E 51 247 1
E 51 252 8
E 52 53 14
E 52 250 1
E 52 253 8
E 53 54 1
E 53 263 1
E 53 279 8
E 54 265 1
E 54 280 7
E 54 282 8
E 55 56 1
E 55 199 7
E 55 209 1
E 55 236 20
E 56 57 14
E 56 211 1
E 56 239 20
E 57 58 1
E 57 227 1
E 57 254 20
E 58 229 1
E 58 244 7
E 58 256 20
E 59 60 1
E 59 170 7
E 59 182 1
E 60 61 14
E 60 184 1
E 61 62 1
E 61 200 1
E 62 201 1
E 62 212 7
E 63 64 1
E 63 221 8
E 63 222 7
E 63 237 3
E 64 65 14
E 64 223 8
E 64 240 3
E 65 66 1
E 65 249 8
E 66 251 8
E 66 266 7
E 67 68 1
E 67 186 17
E 67 194 7
E 67 206 1
E 68 69 14
E 68 187 17
E 68 208 1
E 69 70 1
E 69 203 17
E 69 224 1
E 70 205 17
E 70 226 1
E 70 236 7
E 71 72 1
E 71 167 7
E 71 176 1
E 71 180 1
E 72 73 14
E 72 179 1
E 72 181 1
E 73 74 1
E 73 195 1
E 73 198 1
E 74 197 1
E 74 199 1
E 74 209 7
E 75 76 1
E 75 142 7
E 75 149 1
E 75 155 4
E 76 77 14
E 76 151 1
E 76 156 4
E 77 78 1
E 77 168 1
E 77 173 4
E 78 170 1
E 78 177 4
E 78 182 7
E 79 80 1
E 79 171 7
E 79 174 3
E 79 189 9
E 80 81 14
E 80 178 3
E 80 191 9
E 81 82 1
E 81 193 3
E 81 215 9
E 82 196 3
E 82 213 7
E 82 218 9
E 83 84 1
E 83 144 7
E 83 146 4
E 83 172 17
E 84 85 14
E 84 148 4
E 84 175 17
E 85 86 1
E 85 165 4
E 85 192 17
E 86 167 4
E 86 186 7
E 86 194 17
E 87 88 1
E 87 128 7
E 87 132 4
E 87 145 16
E 88 89 14
E 88 134 4
E 88 147 16
E 89 90 1
E 89 140 4
E 89 163 16
E 90 142 4
E 90 155 7
E 90 166 16
E 91 92 1
E 91 122 7
E 91 129 16
E 92 93 14
E 92 130 16
E 93 94 1
E 93 137 16
E 94 138 16
E 95 96 1
E 95 160 11
E 95 164 7
E 96 97 14
E 96 161 11
E 97 98 1
E 97 188 3
E 98 190 3
E 98 237 30
E 99 100 1
E 99 135 18
E 99 150 3
E 100 101 14
E 100 136 18
E 100 152 3
E 101 102 1
E 101 143 18
E 101 169 3
E 102 144 18
E 102 171 3
E 102 174 7
E 103 104 1
E 103 123 16
E 103 126 7
E 103 135 5
E 104 105 14
E 104 124 16
E 104 136 5
E 105 106 1
E 105 127 16
E 105 143 5
E 106 128 16
E 106 144 5
E 106 145 7
E 107 108 1
E 107 119 16
E 107 123 7
E 108 109 14
E 108 120 16
E 108 124 7
E 109 110 1
E 109 121 16
E 109 127 7
E 110 122 16
E 110 128 7
E 110 129 7
E 111 112 1
E 112 158 6
E 113 114 1
E 113 159 6
E 113 162 3
E 114 164 3
E 115 116 1
E 116 117 14
E 117 118 1
E 117 125 47
E 118 119 15
E 118 126 47
E 119 120 1
E 120 121 14
E 121 122 1
E 123 124 1
E 124 127 14
E 125 126 1
E 125 162 46
E 126 153 35
E 127 128 1
E 129 130 1
E 129 131 2
E 130 133 2
E 130 137 14
E 131 132 1
E 131 133 1
E 132 134 1
E 133 134 1
E 133 139 14
E 134 140 14
E 135 136 1
E 136 143 14
E 137 138 1
E 137 139 2
E 138 141 2
E 139 140 1
E 139 141 1
E 140 142 1
E 141 142 1
E 141 149 7
E 143 144 1
E 145 146 1
E 145 147 1
E 146 148 1
E 147 148 1
E 147 163 14
E 148 165 14
E 149 151 1
E 150 152 1
E 150 160 9
E 151 168 14
E 152 161 9
E 152 169 14
E 153 160 7
E 153 164 11
E 154 157 2
E 154 158 3
E 155 156 1
E 155 176 16
E 156 173 14
E 156 179 16
E 157 159 3
E 157 162 6
E 158 159 2
E 160 161 1
E 161 183 14
E 162 164 1
E 163 165 1
E 163 166 1
E 165 167 1
E 166 167 1
E 166 176 7
E 168 170 1
E 169 171 1
E 169 183 9
E 171 185 9
E 172 174 1
E 172 175 1
E 173 177 1
E 173 195 16
E 174 178 1
E 175 178 1
E 175 192 14
E 176 179 1
E 177 197 16
E 178 193 14
E 179 195 14
E 180 181 1
E 180 186 3
E 181 187 3
E 181 198 14
E 182 184 1
E 182 207 20
E 183 185 1
E 183 188 8
E 184 200 14
E 184 210 20
E 185 189 7
E 185 190 8
E 186 187 1
E 187 203 14
E 188 190 1
E 189 191 1
E 189 202 8
E 190 202 7
E 191 204 8
E 191 215 14
E 192 193 1
E 192 194 1
E 193 196 1
E 194 196 1
E 195 197 1
E 196 206 7
E 197 207 7
E 198 199 1
E 198 203 3
E 199 205 3
E 200 201 1
E 200 225 20
E 201 228 20
E 202 204 1
E 203 205 1
E 204 220 14
E 206 208 1
E 206 213 3
E 207 209 1
E 207 210 1
E 208 217 3
E 208 224 14
E 209 211 1
E 210 211 1
E 210 225 14
E 211 227 14
E 212 214 1
E 213 216 1
E 213 217 1
E 214 230 14
E 215 218 1
E 215 220 8
E 216 219 1
E 216 221 8
E 217 219 1
E 217 231 14
E 218 221 7
E 218 222 8
E 219 223 8
E 219 233 14
E 220 222 1
E 221 223 1
E 223 249 14
E 224 226 1
E 224 231 3
E 225 227 1
E 225 228 1
E 226 234 3
E 226 238 7
E 227 229 1
E 228 229 1
E 229 242 7
E 230 232 1
E 231 233 1
E 231 234 1
E 233 235 1
E 233 249 8
E 234 235 1
E 234 247 7
E 235 251 8
E 236 238 1
E 236 239 1
E 237 240 1
E 238 241 1
E 238 247 3
E 239 241 1
E 239 254 14
E 240 268 22
E 241 250 3
E 241 255 14
E 242 244 1
E 242 245 1
E 243 246 1
E 244 248 1
E 245 248 1
E 245 258 14
E 246 259 14
E 247 250 1
E 248 260 14
E 249 251 1
E 250 263 14
E 251 252 7
E 252 253 1
E 252 266 8
E 253 267 8
E 253 279 14
E 254 255 1
E 254 256 1
E 255 257 1
E 255 263 3
E 256 257 1
E 257 265 3
E 258 260 1
E 258 261 1
E 259 262 1
E 260 264 1
E 261 264 1
E 261 272 7
E 263 265 1
E 265 277 7
E 266 267 1
E 266 268 3
E 267 270 3
E 267 284 14
E 268 270 1
E 269 272 1
E 269 273 1
E 270 288 14
E 271 274 1
E 271 277 2
E 272 275 1
E 273 275 1
E 273 289 14
E 274 281 2
E 274 291 14
E 275 292 14
E 276 278 1
E 277 280 1
E 277 281 1
E 278 296 14
E 279 282 1
E 279 284 8
E 280 283 1
E 280 285 8
E 281 283 1
E 281 297 14
E 282 285 7
E 282 286 8
E 283 287 8
E 283 299 14
E 284 286 1
E 284 288 3
E 285 287 1
E 286 290 3
E 287 307 14
E 288 290 1
E 289 292 1
E 289 293 1
E 291 294 1
E 291 297 2
E 292 295 1
E 293 295 1
E 294 300 2
E 294 302 7
E 296 298 1
E 297 299 1
E 297 300 1
E 299 301 1
E 299 307 8
E 300 301 1
E 300 305 7
E 301 309 8
E 302 303 1
E 302 305 2
E 303 308 2
E 303 312 14
E 304 306 1
E 304 318 21
E 305 308 1
E 305 310 9
E 306 314 14
E 306 319 21
E 307 309 1
E 308 311 9
E 308 315 14
E 309 310 7
E 310 311 1
E 311 321 14
E 312 313 1
E 312 315 2
E 313 317 2
E 314 316 1
E 314 326 21
E 315 317 1
E 315 321 9
E 316 327 21
E 317 320 7
E 317 323 9
E 318 319 1
E 319 326 14
E 320 322 1
E 320 324 9
E 321 323 1
E 322 325 9
E 322 328 14
E 323 324 7
E 324 325 1
E 325 330 14
E 326 327 1
E 328 329 1
E 328 330 9
E 329 331 9
E 330 331 1
E 1 332 100000
E 2 332 100000
E 3 332 100000
E 4 332 100000
E 5 333 100000
E 6 333 100000
E 7 334 100000
E 8 334 100000
E 9 334 100000
E 10 334 100000
E 11 335 100000
E 12 335 100000
E 13 335 100000
E 14 335 100000
E 15 336 100000
E 16 336 100000
E 17 336 100000
E 18 336 100000
E 19 337 100000
E 20 337 100000
E 21 337 100000
E 22 337 100000
E 23 338 100000
E 24 338 100000
E 25 338 100000
E 26 338 100000
E 27 339 100000
E 28 339 100000
E 29 339 100000
E 30 339 100000
E 31 340 100000
E 32 340 100000
E 33 340 100000
E 34 340 100000
E 35 341 100000
E 36 341 100000
E 37 341 100000
E 38 341 100000
E 39 342 100000
E 40 342 100000
E 41 342 100000
E 42 342 100000
E 43 343 100000
E 44 343 100000
E 45 343 100000
E 46 343 100000
E 47 344 100000
E 48 344 100000
E 49 344 100000
E 50 344 100000
E 51 345 100000
E 52 345 100000
E 53 345 100000
E 54 345 100000
E 55 346 100000
E 56 346 100000
E 57 346 100000
E 58 346 100000
E 59 347 100000
E 60 347 100000
E 61 347 100000
E 62 347 100000
E 63 348 100000
E 64 348 100000
E 65 348 100000
E 66 348 100000
E 67 349 100000
E 68 349 100000
E 69 349 100000
E 70 349 100000
E 71 350 100000
E 72 350 100000
E 73 350 100000
E 74 350 100000
E 75 351 100000
E 76 351 100000
E 77 351 100000
E 78 351 100000
E 79 352 100000
E 80 352 100000
E 81 352 100000
E 82 352 100000
E 83 353 100000
E 84 353 100000
E 85 353 100000
E 86 353 100000
E 87 354 100000
E 88 354 100000
E 89 354 100000
E 90 354 100000
E 91 355 100000
E 92 355 100000
E 93 355 100000
E 94 355 100000
E 95 356 100000
E 96 356 100000
E 97 356 100000
E 98 356 100000
E 99 357 100000
E 100 357 100000
E 101 357 100000
E 102 357 100000
E 103 358 100000
E 104 358 100000
E 105 358 100000
E 106 358 100000
E 107 359 100000
E 108 359 100000
E 109 359 100000
E 110 359 100000
E 111 360 100000
E 112 360 100000
E 113 360 100000
E 114 360 100000
E 115 361 100000
E 116 361 100000
E 117 361 100000
E 118 361 100000
END

SECTION Terminals
Terminals 30
T 332
T 333
T 334
T 335
T 336
T 337
T 338
T 339
T 340
T 341
T 342
T 343
T 344
T 345
T 346
T 347
T 348
T 349
T 350
T 351
T 352
T 353
T 354
T 355
T 356
T 357
T 358
T 359
T 360
T 361
END

SECTION Tree Decomposition
c We do not guarantee that this tree decomposition has minimum width.
s td 295 19 361
b 1 111 112 360
b 2 115 116 361
b 3 333 5 6
b 4 116 361 117
b 5 361 117 118
b 6 112 360 158
b 7 5 154 6
b 8 117 118 125
b 9 331 329 330
b 10 360 114 113 158
b 11 114 113 158 164
b 12 94 355 93 138
b 13 118 125 126 119
b 14 43 343 44 212
b 15 154 157 158 6
b 16 47 344 48 268
b 17 50 344 49 290
b 18 14 335 13 298
b 19 18 336 17 323
b 20 329 330 328 4
b 21 330 328 325 4
b 22 120 108 119 121
b 23 122 91 110 121
b 24 123 107 103 124
b 25 131 132 133 129
b 26 135 99 136 103
b 27 146 145 148 83
b 28 149 151 75 141
b 29 150 99 152 160
b 30 159 113 157 158
b 31 113 157 158 162 164
b 32 157 158 162 6 164
b 33 162 6 164 125
b 34 6 164 125 153
b 35 164 125 153 95
b 36 168 170 77 151
b 37 172 174 83 175
b 38 177 197 173 78
b 39 180 186 71 181
b 40 188 97 190 183
b 41 201 200 62 228
b 42 202 204 189 190
b 43 205 199 203 70
b 44 216 213 219 221
b 45 220 222 204 215
b 46 237 240 63 98
b 47 243 246 27 46
b 48 256 254 257 58
b 49 259 262 29 246
b 50 271 274 35 277
b 51 286 284 290 282
b 52 293 295 289 30
b 53 301 309 299 300
b 54 316 327 314 10
b 55 324 325 320 323
b 56 355 93 92 138 91
b 57 93 92 138 137 91
b 58 92 138 137 130 91
b 59 344 48 49 290 268
b 60 48 49 270 290 268
b 61 49 288 270 290 268
b 62 288 270 284 290 268
b 63 270 284 290 267 268
b 64 354 89 88 87 90
b 65 343 44 45 46 212
b 66 44 45 214 46 212
b 67 45 214 230 46 212
b 68 352 81 80 79 82
b 69 353 84 85 83 86
b 70 357 100 99 101 102
b 71 356 96 97 95 98
b 72 351 76 77 75 78
b 73 340 33 32 34 31
b 74 96 97 161 95 98
b 75 341 36 37 35 38
b 76 125 153 126 95 119
b 77 153 126 95 160 119
b 78 339 28 29 30 27
b 79 126 95 160 103 119
b 80 336 17 16 15 323
b 81 17 16 321 15 323
b 82 16 321 311 15 323
b 83 337 21 19 22 20
b 84 33 32 307 34 31
b 85 32 307 287 34 31
b 86 335 13 12 298 11
b 87 13 12 298 296 11
b 88 12 298 296 278 11
b 89 346 56 57 58 55
b 90 348 65 66 64 63
b 91 349 69 68 70 67
b 92 350 72 71 73 74
b 93 347 61 60 62 59
b 94 61 60 200 62 59
b 95 60 200 62 184 59
b 96 321 311 15 315 323
b 97 214 230 40 46 212
b 98 138 137 130 91 141
b 99 137 130 139 91 141
b 100 65 66 64 249 63
b 101 358 104 105 103 106
b 102 345 53 52 54 51
b 103 342 41 40 42 39
b 104 328 322 325 3 4
b 105 298 296 278 10 11
b 106 296 9 278 10 11
b 107 359 109 108 107 110
b 108 334 8 9 10 7
b 109 338 24 26 25 23
b 110 132 133 129 134 87
b 111 332 3 2 1 4
b 112 170 77 151 59 78
b 113 262 29 246 11 30
b 114 222 218 204 215 63
b 115 240 268 64 63 98
b 116 327 314 10 4 326
b 117 97 161 95 190 183 98
b 118 130 139 133 129 91 141
b 119 139 133 129 91 140 141
b 120 100 99 136 101 152 102
b 121 104 105 136 103 124 106
b 122 28 29 246 273 30 27
b 123 109 108 107 110 121 127
b 124 8 9 278 10 306 7
b 125 76 77 151 156 75 78
b 126 84 148 85 83 175 86
b 127 322 325 3 2 320 4
b 128 325 3 2 320 4 323
b 129 200 62 228 225 184 59
b 130 62 228 225 184 212 59
b 131 230 232 41 40 46 212
b 132 284 290 267 268 279 282
b 133 290 267 268 31 279 282
b 134 311 15 315 308 323 310
b 135 15 315 308 323 34 310
b 136 307 309 299 287 34 31
b 137 29 246 273 289 11 30 27
b 138 246 273 289 11 30 27 46
b 139 133 129 134 91 140 87 141
b 140 129 134 91 140 87 110 141
b 141 134 91 140 88 87 110 141
b 142 91 140 88 87 110 121 141
b 143 9 278 314 10 306 7 11
b 144 278 276 314 10 306 7 11
b 145 276 314 10 306 7 11 30
b 146 3 2 320 1 4 326 323
b 147 2 320 319 1 4 326 323
b 148 320 319 1 4 326 317 323
b 149 108 107 119 124 110 121 127
b 150 107 103 119 124 110 121 127
b 151 77 151 156 173 59 75 78
b 152 151 156 173 59 75 78 141
b 153 209 211 55 74 207
b 154 208 68 224 206 217
b 155 305 308 302 300 310
b 156 244 35 248 58 242
b 157 303 308 20 312 302
b 158 252 266 251 51 253
b 159 304 318 306 7 26
b 160 297 299 281 291 300
b 161 292 295 25 289 275
b 162 241 255 239 238 250
b 163 245 40 248 258 242
b 164 128 87 106 110 127
b 165 285 287 280 31 282
b 166 196 194 193 82 206
b 167 195 197 173 179 73
b 168 283 299 287 280 281
b 169 142 140 75 90 141
b 170 192 194 85 175 193
b 171 143 144 105 136 101
b 172 147 145 88 163 148
b 173 233 231 235 249 219
b 174 155 156 75 90 176
b 175 165 167 163 148 85
b 176 166 167 163 90 176
b 177 185 189 190 171 183
b 178 169 101 152 171 183
b 179 236 239 238 55 70
b 180 178 174 80 175 193
b 181 272 269 261 23 275
b 182 182 184 59 78 207
b 183 187 186 68 203 181
b 184 191 204 215 189 80
b 185 198 199 203 73 181
b 186 313 1 22 312 317
b 187 210 225 184 211 207
b 188 260 37 248 258 264
b 189 223 64 249 219 221
b 190 226 234 238 70 224
b 191 265 277 54 257 263
b 192 247 234 51 238 250
b 193 227 225 229 57 211
b 194 294 302 38 291 300
b 195 218 204 215 82 63 221
b 196 72 179 71 73 74 181
b 197 36 37 274 35 38 248
b 198 69 68 203 70 224 67
b 199 66 266 64 249 251 63
b 200 99 136 101 152 160 103 102
b 201 232 41 40 27 42 46 212
b 202 21 19 22 25 20 312
b 203 24 26 25 20 23 275
b 204 53 52 54 263 51 279
b 205 52 54 263 51 250 253 279
b 206 56 239 57 58 211 55
b 207 81 215 80 79 193 82
b 208 89 140 88 87 163 90
b 209 254 255 239 257 57 58
b 210 267 268 266 31 253 279 282
b 211 161 95 152 160 190 183 98
b 212 309 299 287 34 300 310 31
b 213 41 40 27 42 46 258 39 212
b 214 95 152 160 103 119 190 183 98
b 215 213 82 206 217 219 221
b 216 228 225 184 229 39 212 59
b 217 144 105 136 101 102 83 106
b 218 315 308 312 317 323 34 310
b 219 295 7 26 25 289 30 275
b 220 199 203 55 70 73 74 181
b 221 314 10 4 306 326 7 11 30
b 222 105 136 101 103 124 102 83 106 127
b 223 136 101 152 160 103 124 102 83 106 127
b 224 197 173 179 73 74 78 207
b 225 145 88 87 163 148 83 106
b 226 269 261 273 23 275 27 42
b 227 261 273 23 275 27 42 258 264
b 228 231 235 234 249 224 217 219
b 229 235 234 249 251 51 224 217 219
b 230 318 319 1 306 7 26 22
b 231 37 274 35 38 248 258 264 291
b 232 40 27 42 46 248 258 39 212 242
b 233 174 80 79 102 83 175 193
b 234 186 68 203 67 71 86 181
b 235 204 215 189 80 190 82 63 221
b 236 215 189 80 79 190 193 82 63 221
b 237 255 239 257 263 57 58 238 250
b 238 274 35 38 248 258 264 281 291 277
b 239 140 88 87 163 110 121 75 90 141
b 240 19 22 25 20 312 302 23 38
b 241 299 287 280 34 281 291 300 310 31
b 242 287 280 34 281 291 300 310 31 282
b 243 225 184 229 39 57 212 211 59 207
b 244 184 229 39 57 212 211 59 78 207
b 245 229 39 57 58 212 242 211 59 78 207
b 246 308 20 312 317 323 302 34 300 310
b 247 319 1 4 306 326 7 26 22 317 323
b 248 1 4 306 326 7 26 22 312 317 323
b 249 4 306 326 7 26 22 312 317 323 11 30
b 250 189 80 79 190 171 183 193 82 63 221
b 251 280 34 281 291 300 310 277 54 31 282
b 252 101 152 160 103 124 102 171 183 83 106 127
b 253 167 163 148 85 71 86 90 176
b 254 194 85 175 193 82 67 86 206
b 255 156 173 179 59 75 78 90 141 176
b 256 7 26 22 25 312 317 323 289 11 30 275
b 257 26 22 25 20 312 317 323 289 11 23 30 275
b 258 22 25 20 312 317 323 302 289 11 23 30 275 38
b 259 268 266 64 31 253 279 282 63 98
b 260 239 257 263 57 58 211 238 250 55 70
b 261 88 87 163 148 83 106 110 121 75 90 141
b 262 87 163 148 83 106 110 121 127 75 90 141
b 263 173 179 59 73 74 75 78 90 141 176 207
b 264 179 59 71 73 74 75 78 90 141 176 181 207
b 265 266 64 249 251 31 51 253 279 282 63 98
b 266 64 249 251 31 51 253 279 282 63 98 219 221
b 267 234 249 251 51 238 250 70 224 217 219
b 268 152 160 103 119 124 190 102 171 183 83 106 127 98
b 269 103 119 124 190 102 171 183 83 106 110 121 127 98
b 270 68 203 70 224 67 71 86 181 206 217
b 271 273 289 11 23 30 275 27 42 46 258 264
b 272 203 55 70 224 67 71 73 74 86 181 206 217
b 273 80 79 190 102 171 183 83 175 193 82 63 221
b 274 20 312 317 323 302 289 11 23 30 275 38 34 300 310
b 275 302 289 11 23 30 275 38 34 291 300 310
b 276 35 38 248 258 264 281 291 277 257 58 242
b 277 289 11 23 30 275 27 42 46 38 258 264 34 291 300 310
b 278 27 42 46 38 248 258 264 34 291 300 310 39 212 242
b 279 38 248 258 264 34 281 291 300 310 277 257 39 58 212 242
b 280 34 281 291 300 310 277 54 257 39 58 212 242 31 282
b 281 277 54 257 263 39 58 212 242 31 282
b 282 54 257 263 39 58 212 242 31 51 250 253 279 282
b 283 190 102 171 183 83 106 110 121 127 175 193 82 63 98 221
b 284 163 148 85 83 106 110 121 127 71 75 86 90 141 176
b 285 148 85 83 106 110 121 127 175 71 75 86 90 141 176
b 286 85 83 106 110 121 127 175 193 82 67 71 75 86 90 141 176 206
b 287 83 106 110 121 127 175 193 82 63 67 71 75 86 90 98 141 176 206 221
b 288 82 63 67 71 75 86 90 98 141 176 206 217 219 221
b 289 249 251 31 51 238 250 253 279 282 70 224 63 98 217 219 221
b 290 257 263 39 57 58 212 242 211 31 51 238 250 253 279 282 55 70
b 291 39 57 58 212 242 211 31 51 238 250 253 279 282 55 70 59 78 207
b 292 211 31 51 238 250 253 279 282 55 70 59 74 78 207
b 293 31 51 238 250 253 279 282 55 70 224 59 63 74 78 98 207 217 219 221
b 294 55 70 224 59 63 67 71 73 74 78 86 98 181 206 207 217 219 221
b 295 59 63 67 71 73 74 75 78 86 90 98 141 176 181 206 207 217 219 221
1 6
6 10
10 11
11 31
31 32
32 15
31 30
32 33
33 34
34 35
35 76
76 77
77 79
79 214
214 268
268 269
268 252
269 283
283 287
287 286
286 285
285 284
287 288
288 295
295 294
294 293
293 289
293 292
292 291
291 290
290 282
295 264
294 272
289 266
283 273
264 263
266 265
284 262
262 261
273 250
272 270
282 281
281 280
280 279
279 278
279 276
278 277
277 271
277 275
275 274
274 258
258 257
257 256
280 251
289 267
252 223
291 245
290 260
265 259
263 255
261 239
250 236
278 232
276 238
274 246
256 249
249 248
248 247
245 244
251 242
223 222
244 243
242 241
271 227
286 254
258 240
267 229
284 253
260 237
236 235
232 213
238 231
272 220
273 233
263 224
261 225
270 234
271 138
256 219
223 200
259 210
255 152
239 142
246 218
249 221
247 148
247 230
222 217
243 216
241 212
227 226
229 228
214 211
213 201
138 137
152 151
142 141
221 145
148 147
141 140
145 144
147 146
140 139
144 143
269 150
150 149
282 205
264 196
265 199
270 198
285 126
257 203
260 206
239 208
236 207
288 215
222 121
240 202
237 209
235 195
231 197
200 120
210 133
218 135
216 130
212 136
211 117
201 131
137 122
151 125
146 128
139 119
143 124
149 123
205 204
133 132
135 134
130 129
128 127
119 118
266 189
196 92
265 158
262 164
250 177
270 154
281 191
241 168
276 156
198 91
275 194
267 190
267 192
260 179
259 115
255 174
239 169
232 163
246 157
246 155
248 186
244 182
242 165
243 187
243 193
241 160
254 166
254 170
253 175
253 176
237 162
235 184
213 103
220 185
231 188
233 180
224 167
225 172
234 183
219 161
221 116
230 159
217 171
226 181
228 173
137 113
151 112
146 111
139 110
143 106
106 105
105 88
88 87
87 86
199 100
126 69
100 90
203 109
206 89
292 153
208 64
207 68
121 101
202 83
195 114
197 75
120 70
136 85
85 84
84 73
117 74
74 71
131 97
97 67
67 66
66 65
122 78
125 72
124 108
123 107
204 102
132 63
63 62
62 61
61 60
60 59
134 96
96 82
82 81
81 80
129 95
252 178
95 94
94 93
127 104
118 99
99 98
98 58
58 57
57 56
112 36
114 45
113 49
110 25
65 14
59 16
59 17
80 19
116 54
104 21
21 20
86 18
76 13
238 50
235 42
220 43
233 37
224 38
225 27
234 39
138 47
219 52
200 26
200 29
152 28
142 23
212 53
150 24
149 22
215 44
209 48
117 40
128 55
132 51
129 41
56 12
115 46
20 9
13 8
8 5
5 4
4 2
15 7
7 3
END

EOF
